25 50
1 2 5
1 6 4
2 3 2
2 7 3
3 4 1
3 8 2
4 5 1
4 9 5
5 10 2
6 7 5
6 11 1
7 8 4
7 12 3
8 9 4
8 13 2
9 10 4
9 14 5
10 15 4
11 12 5
11 16 5
12 13 5
12 17 2
13 14 1
13 18 1
14 15 1
14 19 3
15 20 5
16 17 3
16 21 3
17 18 1
17 22 1
18 19 5
18 23 4
19 20 5
19 24 2
20 25 2
21 22 5
22 23 4
23 24 2
24 25 1
1 21 4
2 22 3
3 23 2
4 24 1
5 25 2
1 5 5
6 10 3
11 15 4
16 20 1
21 25 5
